; point 1 to 8
(declare-const A Int)
(declare-const B Int)
(declare-const C Int)
(declare-const D Int)
(declare-const E Int)
(declare-const F Int)
(declare-const G Int)
(declare-const H Int)

(define-fun Path ((Point1 Int) (Point2 Int)) Bool

)